CMD:
./solvers/bin/cadical --plain --no-reduce -t 1600 ./data/cnfs//nusmvguidancep6/nusmvguidancep6.69.cnf

c --- [ banner ] -------------------------------------------------------------
c 
c CaDiCaL SAT Solver
c Copyright (c) 2016-2024
c A. Biere, M. Fleury, N. Froleyks, K. Fazekas, F. Pollitt, T. Faller
c JKU Linz, University of Freiburg, TU Wien
c 
c Version 2.1.3 5296d3d2a9bf48c154ab2acb5e44625776d821bf
c g++ (Gentoo 12.3.1_p20230526 p2) 12.3.1 20230526 -Wall -Wextra -O3 -DNDEBUG
c Sat Aug 9 07:26:21 PDT 2025 Linux cedar2.int.cedar.computecanada.ca 5.14.0-362.24.2.el9_3.x86_64 x86_64
c 
c --- [ limit ] --------------------------------------------------------------
c 
c setting time limit to 1600 seconds real time (due to '-t 1600')
c 
c --- [ parsing input ] ------------------------------------------------------
c 
c reading DIMACS file from './data/cnfs//nusmvguidancep6/nusmvguidancep6.69.cnf'
c opening file to read './data/cnfs//nusmvguidancep6/nusmvguidancep6.69.cnf'
c found 'p cnf 127136 363386' header
c parsed 363386 clauses in 0.06 seconds process time
c 
c --- [ options ] ------------------------------------------------------------
c 
c   --compact=false                (different from default 'true')
c   --decompose=false              (different from default 'true')
c   --deduplicate=false            (different from default 'true')
c   --elim=false                   (different from default 'true')
c   --probe=false                  (different from default 'true')
c   --reduce=false                 (different from default 'true')
c   --subsume=false                (different from default 'true')
c   --ternary=false                (different from default 'true')
c   --transred=false               (different from default 'true')
c   --vivify=false                 (different from default 'true')
c 
c --- [ solving ] ------------------------------------------------------------
c 
c time measured in process time since initialization
c 
c  seconds  reductions  redundant  irredundant
c         MB    restarts       trail       variables
c          level   conflicts       glue          remaining
c 
c *  0.06 60  0 0   0    0    0  0% 0 361334 116266 91%
c {  0.07 60  0 0   0    0    0  0% 0 361334 116266 91%
c i  0.07 60 27 0   0    2    1 11% 0 361334 116264 91%
c i  0.07 60 26 0   0    3    1 12% 0 361334 116262 91%
c i  0.07 60 85 0   0   37   34 12% 1 361334 116241 91%
c i  0.08 60 89 0   0   41   36 13% 1 361334 116239 91%
c i  0.09 61 76 0  10  172  166 13% 1 361334 116237 91%
c i  0.10 61 117 0  11  186  179 14% 1 361334 116235 91%
c i  0.10 61 116 0  11  189  181 14% 1 361334 116233 91%
c i  0.10 61 118 0  14  205  195 14% 1 361334 116216 91%
c i  0.10 61 117 0  15  206  195 14% 1 361334 116192 91%
c i  0.11 61 114 0  17  214  201 15% 2 361334 116180 91%
c i  0.11 61 110 0  20  223  209 14% 2 361334 116175 91%
c i  0.11 61 109 0  20  224  209 14% 2 361334 116167 91%
c i  0.11 61 104 0  23  235  217 14% 2 361334 116162 91%
c i  0.11 61 104 0  24  236  217 14% 2 361334 116160 91%
c i  0.11 61 103 0  24  238  218 14% 2 361334 116159 91%
c i  0.13 61 119 0  45  323  296 15% 2 361334 116153 91%
c i  0.13 61 119 0  45  324  296 15% 2 361334 116141 91%
c i  0.13 61 117 0  48  332  303 15% 2 361334 116128 91%
c 
c  seconds   reductions  redundant  irredundant
c         MB     restarts       trail       variables
c           level   conflicts       glue          remaining
c 
c i  0.18 61 136 0 116  669  617 19% 2 361334 116121 91%
c i  0.22 61 174 0 120  773  719 23% 2 361334 116115 91%
c }  0.25 61 146 0 178 1000  933 21% 2 361334 116115 91%
c [  0.25 61  0 0 178 1000  933  0% 0 361334 116115 91%
c O  0.26 61 38 0 178 1002  935 12% 2 361334 116115 91%
c i  0.29 62 534 0 178 1319 1251 57% 2 361334 116110 91%
c i  0.30 62 689 0 178 1517 1436 72% 2 361334 116108 91%
c i  0.30 62 703 0 178 1546 1463 73% 2 361334 116061 91%
c i  0.31 62 730 0 178 1637 1536 76% 2 361334 116060 91%
c i  0.31 62 733 0 178 1653 1550 77% 3 361334 116059 91%
c i  0.31 62 749 0 178 1743 1632 79% 3 361334 116058 91%
c i  0.31 62 750 0 178 1752 1640 79% 3 361334 116009 91%
c i  0.32 62 758 0 178 1804 1686 80% 3 361334 115996 91%
c i  0.32 62 760 0 178 1813 1694 80% 3 361334 115678 91%
c i  0.32 62 761 0 178 1834 1709 81% 3 361334 114653 90%
c i  0.33 62 607 0 179 2064 1909 67% 3 361334 114606 90%
c i  0.34 62 552 0 179 2183 2016 63% 4 361334 112964 89%
c i  0.35 62 505 0 179 2301 2115 59% 4 361334 112959 89%
c i  0.35 62 487 0 179 2350 2157 57% 4 361334 112956 89%
c i  0.35 62 472 0 179 2396 2197 56% 4 361334 112945 89%
c 
c  seconds   reductions  redundant  irredundant
c         MB     restarts       trail       variables
c           level   conflicts       glue          remaining
c 
c i  0.35 62 460 0 179 2434 2224 55% 3 361334 112918 89%
c ]  0.39 62 348 0 179 3001 2741 46% 3 361334 112918 89%
c {  0.39 62 146 0 179 3001 2741 21% 2 361334 112918 89%
c F  0.40 62 146 0 179 3003 2743 21% 2 361334 112918 89%
... skipped 67 lines ...
c  seconds  reductions  redundant  irredundant
c         MB    restarts       trail       variables
c          level   conflicts       glue          remaining
c 
c i  0.58 63 56 0 563 5803 5128 19% 3 361334 106155 83%
c i  0.59 63 56 0 565 5857 5168 19% 3 361334 106152 83%
c #  0.60 63 55 0 575 6005 5287 20% 3 361334 106152 83%
c i  0.60 63 54 0 581 6053 5330 20% 3 361334 106151 83%
c i  0.60 63 54 0 581 6054 5330 20% 3 361334 106138 83%
c i  0.61 63 53 0 594 6139 5395 20% 3 361334 106136 83%
c i  0.61 63 53 0 600 6158 5411 20% 3 361334 106135 83%
c i  0.61 63 53 0 605 6178 5426 20% 3 361334 106131 83%
c i  0.61 63 53 0 605 6183 5428 20% 3 361334 101818 80%
c i  0.61 63 53 0 605 6199 5435 20% 3 361334 101587 80%
c i  0.64 63 50 0 646 6535 5713 20% 3 361334 101526 80%
c i  0.64 63 50 0 651 6554 5730 20% 3 361334 101516 80%
c i  0.65 63 50 0 655 6573 5746 20% 3 361334 101502 80%
c i  0.65 63 49 0 667 6656 5817 20% 3 361334 101499 80%
c i  0.66 63 48 0 677 6706 5848 20% 3 361334 96852 76%
c i  0.66 63 48 0 680 6717 5856 20% 3 361334 96834 76%
c i  0.66 63 48 0 681 6718 5856 20% 3 361334 96828 76%
c i  0.66 63 48 0 681 6732 5862 20% 3 361334 96808 76%
c i  0.66 63 48 0 682 6749 5874 20% 3 361334 96806 76%
c i  0.66 63 48 0 682 6750 5874 20% 3 361334 96803 76%
c 
c  seconds  reductions  redundant  irredundant
c         MB    restarts       trail       variables
c          level   conflicts       glue         remaining
c 
c i  0.66 63 48 0 687 6771 5889 20% 3 361334 96786 76%
c i  0.66 63 48 0 693 6798 5905 20% 3 361334 96780 76%
c i  0.66 63 47 0 694 6830 5931 20% 3 361334 96739 76%
c i  0.66 63 47 0 694 6832 5932 20% 3 361334 96720 76%
c i  0.66 63 47 0 694 6854 5952 20% 3 361334 96689 76%
c i  0.66 63 47 0 694 6882 5974 20% 3 361334 96682 76%
c i  0.66 63 47 0 694 6883 5974 20% 3 361334 96675 76%
c i  0.66 63 47 0 694 6899 5988 20% 3 361334 96661 76%
c i  0.66 63 47 0 694 6908 5996 20% 3 361334 96436 76%
c i  0.66 63 47 0 694 6911 5997 20% 3 361334 96432 76%
c i  0.66 63 47 0 694 6921 6004 20% 3 361334 96423 76%
c i  0.66 63 47 0 694 6933 6011 20% 3 361334 96296 76%
c i  0.66 63 47 0 694 6935 6012 20% 3 361334 96295 76%
c i  0.67 63 46 0 698 6974 6046 20% 3 361334 96051 76%
c i  0.67 63 46 0 698 6976 6047 20% 3 361334 95906 75%
c i  0.67 63 46 0 698 6978 6048 20% 3 361334 95767 75%
c i  0.67 63 46 0 698 6979 6048 20% 3 361334 95729 75%
c }  0.67 63 46 0 698 6988 6054 20% 3 361334 94077 74%
c 0  0.67 63 46 0 698 6988 6054 20% 3 361334 94077 74%
c 
c --- [ result ] -------------------------------------------------------------
c 
s UNSATISFIABLE
c 
c --- [ run-time profiling ] -------------------------------------------------
c 
c process time taken by individual solving procedures
c (percentage relative to process time for solving)
c 
c         0.60   99.98% search
c         0.46   76.49% unstable
c         0.14   23.36% stable
c         0.06   10.60% parse
c         0.00    0.13% lucky
c         0.00    0.00% simplify
c   =================================
c         0.60   90.34% solve
c 
c last line shows process time for solving
c (percentage relative to total process time)
c 
c --- [ statistics ] ---------------------------------------------------------
c 
c chronological:              3076        44.02 %  of conflicts
c conflicts:                  6988     11599.21    per second
c decisions:                 35673     59212.72    per second
c fixed:                     33059        26.00 %  of all variables
c learned:                    6581        94.18 %  per conflict
c learned_lits:              84039       100.00 %  learned literals
c minimized:                     0         0.00 %  learned literals
c shrunken:                  17415        20.72 %  learned literals
c minishrunken:              12715        15.13 %  learned literals
c otfs:                         95         1.36 %  of conflict
c propagations:            9464498        15.71 M  per second
c rephased:                      3      2329.33    interval
c restarts:                    698        10.01    interval
c stabilizing:                   1        28.62 %  of conflicts
c subsumed:                    400         0.11 %  of all clauses
c strengthened:                 93         0.03 %  of all clauses
c 
c seconds are measured in process time for solving
c 
c --- [ resources ] ----------------------------------------------------------
c 
c total process time since initialization:         0.67    seconds
c total real time since initialization:            0.68    seconds
c maximum resident set size of process:           61.45    MB
c 
c --- [ shutting down ] ------------------------------------------------------
c 
c exit 20
